unsat
( c1000
  c1001
  c1006
  c1007
  c1008
  c1009
  c101
  c1014
  c1016
  c1017
  c1022
  c1023
  c1024
  c1025
  c1030
  c1032
  c1033
  c1038
  c1040
  c1041
  c1046
  c1048
  c105
  c1050
  c1052
  c1054
  c1056
  c1058
  c1059
  c1069
  c1095
  c1096
  c1097
  c1098
  c1099
  c110
  c1100
  c1101
  c1102
  c1103
  c111
  c1112
  c1113
  c1114
  c1115
  c1116
  c1117
  c1118
  c1119
  c1121
  c1122
  c1125
  c1126
  c1129
  c1130
  c1133
  c1134
  c1137
  c1138
  c1141
  c1142
  c1145
  c1146
  c1149
  c1150
  c1153
  c1154
  c1163
  c1164
  c1167
  c1171
  c1172
  c1175
  c1176
  c1179
  c1180
  c1183
  c1184
  c1187
  c1188
  c1191
  c1192
  c1195
  c1196
  c1205
  c1206
  c1209
  c1210
  c1213
  c1217
  c1218
  c1221
  c1222
  c1225
  c1226
  c1229
  c1230
  c1233
  c1234
  c1237
  c1238
  c1247
  c1248
  c1251
  c1252
  c1255
  c1256
  c1259
  c126
  c1263
  c1264
  c1267
  c1268
  c127
  c1271
  c1272
  c1275
  c1276
  c1279
  c128
  c1280
  c1289
  c129
  c1290
  c1293
  c1294
  c1297
  c1298
  c130
  c1301
  c1302
  c1305
  c1309
  c131
  c1310
  c1313
  c1314
  c1317
  c1318
  c132
  c1321
  c1322
  c133
  c1331
  c1332
  c1335
  c1336
  c1339
  c134
  c1340
  c1343
  c1344
  c1347
  c1348
  c1351
  c1355
  c1356
  c1359
  c1360
  c1363
  c1364
  c1373
  c1374
  c1377
  c1378
  c1381
  c1382
  c1385
  c1386
  c1389
  c1390
  c1393
  c1394
  c1397
  c1401
  c1402
  c1405
  c1406
  c1415
  c1416
  c1419
  c1420
  c1423
  c1424
  c1427
  c1428
  c1431
  c1432
  c1435
  c1436
  c1439
  c1440
  c1443
  c1446
  c1447
  c1448
  c1458
  c1459
  c1461
  c1462
  c1463
  c1466
  c1467
  c1468
  c1470
  c1471
  c1472
  c1475
  c1476
  c1480
  c1481
  c1482
  c1485
  c1486
  c1487
  c1489
  c1490
  c1491
  c1494
  c1495
  c1499
  c1500
  c1501
  c1504
  c1505
  c1506
  c1508
  c1509
  c151
  c1510
  c1513
  c1514
  c1518
  c1519
  c152
  c1520
  c1523
  c1524
  c1525
  c1527
  c1528
  c1529
  c153
  c1532
  c1533
  c1537
  c1538
  c1539
  c154
  c1542
  c1543
  c1544
  c1546
  c1547
  c1548
  c155
  c1551
  c1552
  c1556
  c1557
  c1558
  c156
  c1561
  c1562
  c1563
  c1565
  c1566
  c1567
  c157
  c1570
  c1571
  c1575
  c1576
  c1577
  c158
  c1580
  c1581
  c1582
  c1584
  c1585
  c1586
  c1589
  c1590
  c1594
  c1595
  c1604
  c1605
  c1606
  c1609
  c1610
  c1611
  c1613
  c1614
  c1615
  c1618
  c1619
  c1624
  c1625
  c1627
  c1628
  c1629
  c1632
  c1633
  c1634
  c1636
  c1637
  c1638
  c1641
  c1642
  c1646
  c1647
  c1648
  c165
  c1651
  c1652
  c1653
  c1655
  c1656
  c1657
  c166
  c1660
  c1661
  c1665
  c1666
  c1667
  c167
  c1670
  c1671
  c1672
  c1674
  c1675
  c1676
  c1679
  c168
  c1680
  c1684
  c1685
  c1686
  c1689
  c169
  c1690
  c1691
  c1693
  c1694
  c1695
  c1698
  c1699
  c170
  c1703
  c1704
  c1705
  c1708
  c1709
  c171
  c1710
  c1712
  c1713
  c1714
  c1717
  c1718
  c172
  c1722
  c1723
  c1724
  c1727
  c1728
  c1729
  c173
  c1731
  c1732
  c1733
  c1736
  c1737
  c174
  c1741
  c1742
  c175
  c1751
  c1752
  c1753
  c1756
  c1757
  c1758
  c176
  c1760
  c1761
  c1762
  c1765
  c1766
  c177
  c1770
  c1771
  c1772
  c1775
  c1776
  c1777
  c1779
  c178
  c1780
  c1781
  c1784
  c1785
  c179
  c1790
  c1791
  c1793
  c1794
  c1795
  c1798
  c1799
  c180
  c1800
  c1802
  c1803
  c1804
  c1807
  c1808
  c1812
  c1813
  c1814
  c1817
  c1818
  c1819
  c1821
  c1822
  c1823
  c1826
  c1827
  c1831
  c1832
  c1833
  c1836
  c1837
  c1838
  c1840
  c1841
  c1842
  c1845
  c1846
  c1850
  c1851
  c1852
  c1855
  c1856
  c1857
  c1859
  c1860
  c1861
  c1864
  c1865
  c1869
  c1870
  c1871
  c1874
  c1875
  c1876
  c1878
  c1879
  c1880
  c1883
  c1884
  c1888
  c1889
  c189
  c1898
  c1899
  c190
  c1900
  c1903
  c1904
  c1905
  c1907
  c1908
  c1909
  c191
  c1912
  c1913
  c1917
  c1918
  c1919
  c192
  c1922
  c1923
  c1924
  c1926
  c1927
  c1928
  c193
  c1931
  c1932
  c1936
  c1937
  c1938
  c194
  c1941
  c1942
  c1943
  c1945
  c1946
  c1947
  c195
  c1950
  c1951
  c1956
  c1957
  c1959
  c196
  c1960
  c1961
  c1964
  c1965
  c1966
  c1968
  c1969
  c197
  c1970
  c1973
  c1974
  c1978
  c1979
  c198
  c1980
  c1983
  c1984
  c1985
  c1987
  c1988
  c1989
  c1992
  c1993
  c1997
  c1998
  c1999
  c2
  c2002
  c2003
  c2004
  c2006
  c2007
  c2008
  c2011
  c2012
  c2016
  c2017
  c2018
  c2021
  c2022
  c2023
  c2025
  c2026
  c2027
  c2030
  c2031
  c2035
  c2036
  c2045
  c2046
  c2047
  c2050
  c2051
  c2052
  c2054
  c2055
  c2056
  c2059
  c2060
  c2064
  c2065
  c2066
  c2069
  c207
  c2070
  c2071
  c2073
  c2074
  c2075
  c2078
  c2079
  c208
  c2083
  c2084
  c2085
  c2088
  c2089
  c209
  c2090
  c2092
  c2093
  c2094
  c2097
  c2098
  c210
  c2102
  c2103
  c2104
  c2107
  c2108
  c2109
  c211
  c2111
  c2112
  c2113
  c2116
  c2117
  c212
  c2122
  c2123
  c2125
  c2126
  c2127
  c213
  c2130
  c2131
  c2132
  c2134
  c2135
  c2136
  c2139
  c214
  c2140
  c2144
  c2145
  c2146
  c2149
  c215
  c2150
  c2151
  c2153
  c2154
  c2155
  c2158
  c2159
  c216
  c2163
  c2164
  c2165
  c2168
  c2169
  c217
  c2170
  c2172
  c2173
  c2174
  c2177
  c2178
  c218
  c2182
  c2183
  c219
  c2192
  c2193
  c2194
  c2197
  c2198
  c2199
  c220
  c2201
  c2202
  c2203
  c2206
  c2207
  c221
  c2211
  c2212
  c2213
  c2216
  c2217
  c2218
  c222
  c2220
  c2221
  c2222
  c2225
  c2226
  c223
  c2230
  c2231
  c2232
  c2235
  c2236
  c2237
  c2239
  c224
  c2240
  c2241
  c2244
  c2245
  c2249
  c225
  c2250
  c2251
  c2254
  c2255
  c2256
  c2258
  c2259
  c226
  c2260
  c2263
  c2264
  c2268
  c2269
  c227
  c2270
  c2273
  c2274
  c2275
  c2277
  c2278
  c2279
  c228
  c2282
  c2283
  c2288
  c2289
  c2291
  c2292
  c2293
  c2296
  c2297
  c2298
  c230
  c2300
  c2301
  c2302
  c2305
  c2306
  c231
  c2310
  c2311
  c2312
  c2315
  c2316
  c2317
  c2319
  c2320
  c2321
  c2324
  c2325
  c2329
  c233
  c2330
  c2339
  c234
  c2340
  c2341
  c2344
  c2345
  c2346
  c2348
  c2349
  c2350
  c2353
  c2354
  c2358
  c2359
  c236
  c2360
  c2363
  c2364
  c2365
  c2367
  c2368
  c2369
  c237
  c2372
  c2373
  c2377
  c2378
  c2379
  c2382
  c2383
  c2384
  c2386
  c2387
  c2388
  c2391
  c2392
  c2396
  c2397
  c2398
  c2401
  c2402
  c2403
  c2405
  c2406
  c2407
  c2410
  c2411
  c2415
  c2416
  c2417
  c2420
  c2421
  c2422
  c2424
  c2425
  c2426
  c2429
  c2430
  c2434
  c2435
  c2436
  c2439
  c2440
  c2441
  c2443
  c2444
  c2445
  c2448
  c2449
  c2454
  c2455
  c2457
  c2458
  c2459
  c2462
  c2463
  c2464
  c2466
  c2467
  c2468
  c2471
  c2472
  c2476
  c2477
  c2486
  c2487
  c2488
  c2491
  c2492
  c2493
  c2495
  c2496
  c2497
  c2500
  c2501
  c2505
  c2506
  c2507
  c2510
  c2511
  c2512
  c2514
  c2515
  c2516
  c2519
  c2520
  c2524
  c2525
  c2526
  c2529
  c2530
  c2531
  c2533
  c2534
  c2535
  c2538
  c2539
  c2543
  c2544
  c2545
  c2548
  c2549
  c255
  c2550
  c2552
  c2553
  c2554
  c2557
  c2558
  c256
  c2562
  c2563
  c2564
  c2567
  c2568
  c2569
  c257
  c2571
  c2572
  c2573
  c2576
  c2577
  c258
  c2581
  c2582
  c2583
  c2586
  c2587
  c2588
  c259
  c2590
  c2591
  c2592
  c2595
  c2596
  c260
  c2600
  c2601
  c2602
  c2605
  c2606
  c2607
  c2609
  c261
  c2610
  c2611
  c2614
  c2615
  c262
  c2620
  c2621
  c2623
  c2624
  c263
  c2633
  c2634
  c2636
  c2637
  c2639
  c264
  c2640
  c2642
  c2643
  c2645
  c2646
  c2648
  c2649
  c265
  c2651
  c2652
  c266
  c267
  c268
  c2687
  c2688
  c2689
  c269
  c2690
  c2691
  c2692
  c2693
  c2694
  c270
  c2702
  c2704
  c2705
  c2708
  c2709
  c271
  c2712
  c2713
  c2716
  c2717
  c2720
  c2721
  c2724
  c2725
  c2728
  c2729
  c273
  c2732
  c2733
  c2736
  c2737
  c2738
  c274
  c2741
  c2742
  c2743
  c2746
  c2747
  c2748
  c275
  c2751
  c2752
  c2753
  c2756
  c2757
  c2758
  c2761
  c2762
  c2763
  c2766
  c2767
  c2768
  c277
  c2771
  c2772
  c2773
  c2776
  c2777
  c2778
  c278
  c2781
  c2782
  c2783
  c2786
  c2787
  c2788
  c279
  c2791
  c2792
  c2793
  c2796
  c2797
  c2798
  c2801
  c2802
  c2803
  c2806
  c2807
  c2808
  c281
  c2811
  c2812
  c2813
  c2818
  c2819
  c282
  c2822
  c283
  c285
  c2856
  c2857
  c2858
  c2859
  c286
  c2860
  c2861
  c2862
  c2863
  c2864
  c2865
  c2866
  c2867
  c2868
  c2869
  c287
  c2870
  c2871
  c2872
  c2873
  c2874
  c2875
  c2876
  c2877
  c2878
  c2879
  c2880
  c2881
  c2884
  c2887
  c289
  c2890
  c2893
  c2894
  c2895
  c2896
  c2897
  c2898
  c2899
  c290
  c2900
  c2901
  c2902
  c2903
  c2904
  c2905
  c2906
  c2907
  c2908
  c2909
  c291
  c2927
  c293
  c2931
  c2935
  c2939
  c294
  c2943
  c2947
  c295
  c2951
  c2955
  c2959
  c2962
  c2963
  c2964
  c2967
  c2968
  c2969
  c297
  c2972
  c2973
  c2974
  c2977
  c2978
  c2979
  c298
  c2982
  c2983
  c2984
  c2987
  c2988
  c2989
  c299
  c2992
  c2993
  c2994
  c2997
  c2998
  c2999
  c3003
  c3007
  c301
  c3011
  c3015
  c3019
  c302
  c3020
  c3021
  c3022
  c3023
  c3024
  c3025
  c3026
  c3027
  c3028
  c3029
  c303
  c3030
  c3031
  c3032
  c3033
  c3034
  c3035
  c3036
  c3037
  c3038
  c3039
  c3040
  c3041
  c3042
  c3043
  c3044
  c3045
  c3046
  c305
  c306
  c3075
  c3081
  c3084
  c3087
  c3090
  c3093
  c3096
  c3099
  c310
  c3102
  c3103
  c3104
  c3105
  c3106
  c3107
  c3108
  c311
  c3112
  c3118
  c3121
  c3124
  c3127
  c3130
  c3133
  c3136
  c3137
  c3138
  c3139
  c3140
  c3141
  c3143
  c3146
  c3149
  c315
  c3155
  c3158
  c316
  c3161
  c3164
  c3167
  c3170
  c3171
  c3172
  c3173
  c3174
  c3176
  c3177
  c3180
  c3183
  c3186
  c3192
  c3195
  c3198
  c32
  c320
  c3201
  c3204
  c3205
  c3206
  c3207
  c3209
  c321
  c3210
  c3211
  c3214
  c3217
  c3220
  c3223
  c3229
  c3232
  c3235
  c3238
  c3239
  c3240
  c3242
  c3243
  c3244
  c3245
  c3248
  c325
  c3251
  c3254
  c3257
  c326
  c3260
  c3266
  c3269
  c3272
  c3273
  c3275
  c3276
  c3277
  c3278
  c3279
  c3282
  c3285
  c3288
  c3291
  c3294
  c3297
  c330
  c3303
  c3306
  c3308
  c3309
  c331
  c3310
  c3311
  c3312
  c3313
  c3316
  c3319
  c3322
  c3325
  c3328
  c3331
  c3334
  c3341
  c3342
  c3343
  c3344
  c3345
  c3346
  c3347
  c335
  c3351
  c3354
  c3357
  c336
  c3360
  c3361
  c3364
  c3367
  c3370
  c3373
  c3374
  c3375
  c3378
  c3381
  c3384
  c3387
  c3390
  c3391
  c3392
  c3393
  c3396
  c3399
  c340
  c3402
  c3405
  c3408
  c341
  c3411
  c3412
  c3413
  c3414
  c3415
  c3418
  c3421
  c3424
  c3427
  c3430
  c3433
  c3436
  c3437
  c3438
  c3439
  c3440
  c3441
  c3444
  c3447
  c345
  c3450
  c3453
  c3456
  c3459
  c346
  c3462
  c3465
  c3466
  c3467
  c3468
  c3469
  c347
  c3470
  c3471
  c3474
  c3477
  c3480
  c3483
  c3486
  c3489
  c349
  c3492
  c3495
  c3499
  c350
  c3503
  c3504
  c3505
  c3506
  c3507
  c3508
  c3509
  c351
  c3510
  c3511
  c3512
  c3513
  c3514
  c3515
  c3516
  c3517
  c3518
  c3519
  c3520
  c3521
  c3522
  c3523
  c3524
  c3525
  c3526
  c3527
  c3528
  c3529
  c353
  c3530
  c3531
  c3532
  c3533
  c3534
  c3535
  c3536
  c3537
  c3538
  c3539
  c354
  c3540
  c3541
  c3542
  c3543
  c355
  c3569
  c357
  c3572
  c3573
  c3576
  c3577
  c358
  c3580
  c3581
  c3584
  c3585
  c3588
  c3589
  c359
  c3592
  c3593
  c3596
  c3597
  c3600
  c3601
  c3605
  c3606
  c361
  c3610
  c3611
  c3615
  c3616
  c362
  c3620
  c3621
  c3625
  c3626
  c363
  c3630
  c3631
  c3635
  c3636
  c3640
  c3641
  c3646
  c3647
  c3648
  c365
  c3654
  c3655
  c3656
  c366
  c3662
  c3663
  c3664
  c367
  c3670
  c3671
  c3672
  c3678
  c3679
  c3680
  c3686
  c3687
  c3688
  c369
  c3690
  c3691
  c3693
  c3694
  c3696
  c3697
  c3699
  c370
  c3700
  c3703
  c3705
  c3707
  c3709
  c371
  c3711
  c3713
  c3716
  c3717
  c3722
  c3723
  c3724
  c3725
  c3726
  c3727
  c3728
  c3729
  c3730
  c3731
  c3732
  c3733
  c3734
  c3735
  c3736
  c3737
  c3738
  c3739
  c3740
  c3741
  c3742
  c3743
  c3744
  c3745
  c3746
  c3747
  c3748
  c3749
  c3750
  c3768
  c3770
  c3775
  c3776
  c3779
  c3780
  c3783
  c3784
  c3787
  c3788
  c3791
  c3792
  c3795
  c3796
  c3799
  c3800
  c3803
  c3804
  c3805
  c3806
  c3807
  c3808
  c3809
  c3812
  c3813
  c3814
  c3821
  c3822
  c3825
  c3826
  c3829
  c3830
  c3833
  c3834
  c3837
  c3838
  c3841
  c3842
  c3845
  c3846
  c3847
  c3848
  c3849
  c3850
  c3852
  c3854
  c3855
  c3856
  c3859
  c3860
  c3867
  c3868
  c3871
  c3872
  c3875
  c3876
  c3879
  c3880
  c3883
  c3884
  c3887
  c3888
  c3889
  c3890
  c3891
  c3893
  c3894
  c3896
  c3897
  c3898
  c3901
  c3902
  c3905
  c3906
  c3913
  c3914
  c3917
  c3918
  c3921
  c3922
  c3925
  c3926
  c3929
  c3930
  c3931
  c3932
  c3934
  c3935
  c3936
  c3938
  c3939
  c3940
  c3943
  c3944
  c3947
  c3948
  c3951
  c3952
  c3959
  c3960
  c3963
  c3964
  c3967
  c3968
  c3971
  c3972
  c3973
  c3975
  c3976
  c3977
  c3978
  c3980
  c3981
  c3982
  c3985
  c3986
  c3989
  c3990
  c3993
  c3994
  c3997
  c3998
  c4
  c400
  c4005
  c4006
  c4009
  c401
  c4010
  c4013
  c4014
  c4016
  c4017
  c4018
  c4019
  c402
  c4020
  c4022
  c4023
  c4024
  c4027
  c4028
  c403
  c4031
  c4032
  c4035
  c4036
  c4039
  c404
  c4040
  c4043
  c4044
  c405
  c4051
  c4052
  c4055
  c4057
  c4058
  c4059
  c406
  c4060
  c4061
  c4062
  c4064
  c4065
  c4066
  c4069
  c407
  c4070
  c4073
  c4074
  c4077
  c4078
  c408
  c4081
  c4082
  c4085
  c4086
  c4089
  c409
  c4090
  c4094
  c4098
  c4099
  c410
  c4100
  c4101
  c4102
  c4103
  c4104
  c411
  c4112
  c4113
  c4117
  c412
  c4121
  c4122
  c4125
  c4126
  c4127
  c413
  c4131
  c4132
  c4136
  c414
  c4140
  c4141
  c4144
  c4145
  c4146
  c415
  c4150
  c4151
  c4155
  c4160
  c4163
  c4164
  c4165
  c4169
  c417
  c4170
  c4174
  c4179
  c418
  c4182
  c4183
  c4184
  c4188
  c4189
  c419
  c4193
  c4198
  c420
  c4201
  c4202
  c4203
  c4207
  c4208
  c421
  c4212
  c4216
  c4217
  c422
  c4220
  c4221
  c4222
  c4226
  c4227
  c423
  c4231
  c424
  c4240
  c4241
  c4244
  c4245
  c4246
  c4247
  c4248
  c4249
  c4250
  c4255
  c4256
  c426
  c4270
  c4278
  c4279
  c4283
  c4287
  c4288
  c429
  c4291
  c4292
  c4293
  c4297
  c4298
  c430
  c4302
  c4306
  c4307
  c4310
  c4311
  c4312
  c4316
  c4317
  c432
  c4321
  c4325
  c4326
  c4329
  c433
  c4330
  c4331
  c4335
  c4336
  c4340
  c4344
  c4345
  c4348
  c4349
  c435
  c4350
  c4354
  c4355
  c4359
  c436
  c4363
  c4364
  c4367
  c4368
  c4369
  c4373
  c4374
  c4378
  c438
  c4387
  c4388
  c439
  c4391
  c4392
  c4393
  c4394
  c4395
  c4396
  c4398
  c44
  c4402
  c4403
  c441
  c4417
  c442
  c4421
  c4422
  c4436
  c444
  c4444
  c4445
  c4449
  c445
  c4453
  c4454
  c4457
  c4458
  c4459
  c4463
  c4464
  c4468
  c447
  c4472
  c4473
  c4476
  c4477
  c4478
  c448
  c4482
  c4483
  c4487
  c4491
  c4492
  c4495
  c4496
  c4497
  c45
  c450
  c4501
  c4502
  c4506
  c451
  c4510
  c4511
  c4514
  c4515
  c4516
  c4520
  c4521
  c4525
  c4534
  c4535
  c4538
  c4539
  c4540
  c4541
  c4542
  c4544
  c4545
  c4549
  c4550
  c4558
  c4562
  c4564
  c4568
  c4569
  c4583
  c4587
  c4588
  c460
  c4602
  c461
  c4610
  c4611
  c4615
  c4619
  c4620
  c4623
  c4624
  c4625
  c4629
  c463
  c4630
  c4634
  c4638
  c4639
  c4642
  c4643
  c4644
  c4648
  c4649
  c4653
  c4657
  c4658
  c466
  c4661
  c4662
  c4663
  c4667
  c4668
  c467
  c4672
  c4676
  c4680
  c4681
  c4682
  c4685
  c4686
  c4687
  c4688
  c469
  c4690
  c4691
  c4692
  c4696
  c4697
  c47
  c470
  c4705
  c4709
  c4711
  c4715
  c4716
  c472
  c473
  c4730
  c4734
  c4735
  c4749
  c475
  c4753
  c4754
  c476
  c4768
  c4776
  c4777
  c478
  c4781
  c4785
  c4786
  c4789
  c479
  c4790
  c4791
  c4795
  c4796
  c48
  c4800
  c4805
  c4808
  c4809
  c481
  c4810
  c4814
  c4815
  c4819
  c482
  c4823
  c4824
  c4827
  c4828
  c4829
  c4832
  c4833
  c4834
  c4836
  c4837
  c4838
  c4839
  c484
  c4843
  c4844
  c485
  c4852
  c4856
  c4858
  c4862
  c4863
  c4877
  c4881
  c4882
  c4896
  c49
  c4900
  c4901
  c4915
  c4919
  c4920
  c4934
  c494
  c4942
  c4943
  c4947
  c495
  c4951
  c4952
  c4955
  c4956
  c4957
  c4961
  c4962
  c4966
  c497
  c4970
  c4974
  c4975
  c4976
  c4979
  c498
  c4980
  c4982
  c4983
  c4984
  c4985
  c4986
  c4990
  c4991
  c5
  c50
  c500
  c5005
  c5009
  c5010
  c5024
  c5028
  c5029
  c503
  c504
  c5043
  c5047
  c5048
  c506
  c5062
  c5066
  c5067
  c507
  c5075
  c5079
  c5081
  c5085
  c5086
  c509
  c51
  c510
  c5100
  c5108
  c5109
  c5113
  c5117
  c5118
  c512
  c5121
  c5122
  c5123
  c5126
  c5128
  c5129
  c513
  c5130
  c5131
  c5132
  c5133
  c5137
  c5138
  c5146
  c5147
  c515
  c5150
  c5152
  c5156
  c5157
  c516
  c5165
  c5166
  c5169
  c5171
  c5175
  c5176
  c518
  c5184
  c5185
  c5188
  c519
  c5190
  c5194
  c5195
  c5204
  c5207
  c5209
  c5213
  c5214
  c5228
  c5232
  c5233
  c5242
  c5245
  c5247
  c5251
  c5252
  c5266
  c5274
  c5275
  c5276
  c5277
  c5278
  c5279
  c528
  c5280
  c5283
  c5286
  c5289
  c529
  c5292
  c5295
  c5298
  c5301
  c5302
  c5303
  c5304
  c5305
  c5306
  c5307
  c5308
  c5309
  c531
  c5310
  c5311
  c5312
  c5313
  c5314
  c5315
  c5316
  c5317
  c5318
  c5319
  c532
  c5320
  c5321
  c5322
  c5323
  c5324
  c5325
  c5326
  c5327
  c5328
  c5329
  c5330
  c5331
  c5332
  c5333
  c5334
  c534
  c535
  c5351
  c5354
  c5355
  c5358
  c5359
  c5362
  c5363
  c5366
  c5367
  c537
  c5370
  c5371
  c5374
  c5375
  c5378
  c5379
  c5382
  c5383
  c5387
  c5388
  c5392
  c5393
  c5397
  c5398
  c54
  c540
  c5402
  c5403
  c5407
  c5408
  c541
  c5412
  c5413
  c5417
  c5418
  c5422
  c5423
  c5427
  c5428
  c543
  c5432
  c5433
  c5437
  c5438
  c544
  c5442
  c5443
  c5447
  c5448
  c5449
  c5450
  c5452
  c5453
  c5455
  c5456
  c5458
  c5459
  c546
  c5460
  c5461
  c5462
  c5463
  c5464
  c5465
  c5466
  c5467
  c5468
  c5469
  c547
  c5470
  c5471
  c5472
  c5473
  c5474
  c5475
  c5476
  c5477
  c5478
  c5479
  c5480
  c5481
  c5482
  c5483
  c5484
  c5485
  c5486
  c5487
  c5488
  c5489
  c549
  c5490
  c5491
  c5492
  c5493
  c5494
  c55
  c550
  c552
  c5523
  c5524
  c5525
  c5526
  c5527
  c5528
  c5529
  c553
  c5530
  c5531
  c5532
  c5535
  c5536
  c5539
  c5540
  c5543
  c5544
  c5547
  c5548
  c5551
  c5552
  c5555
  c5556
  c5559
  c5560
  c5561
  c5562
  c5564
  c5565
  c5566
  c5567
  c5568
  c5569
  c5570
  c5571
  c5572
  c5573
  c5575
  c5576
  c5577
  c5578
  c5579
  c5581
  c5582
  c5583
  c5586
  c5587
  c5588
  c5589
  c5590
  c5593
  c5594
  c5595
  c5596
  c5597
  c5600
  c5601
  c5602
  c5603
  c5604
  c5607
  c5608
  c5609
  c5610
  c5611
  c5614
  c5615
  c5616
  c5617
  c5618
  c562
  c5621
  c5622
  c5623
  c5624
  c5625
  c5628
  c5629
  c563
  c5630
  c5631
  c5632
  c5633
  c5634
  c5635
  c5636
  c5637
  c5638
  c5639
  c5640
  c5641
  c5642
  c5643
  c5645
  c5646
  c5647
  c5648
  c565
  c5651
  c5652
  c5653
  c5654
  c5655
  c5656
  c5657
  c5658
  c5659
  c566
  c5660
  c5661
  c5662
  c5663
  c5664
  c5665
  c5666
  c5667
  c5668
  c5670
  c5673
  c5674
  c5675
  c5676
  c5677
  c5678
  c5679
  c568
  c5680
  c5681
  c5682
  c5683
  c5684
  c5685
  c5686
  c5687
  c5689
  c569
  c5690
  c5693
  c5694
  c5695
  c5696
  c5697
  c5698
  c5699
  c57
  c5700
  c5701
  c5702
  c5703
  c5704
  c5705
  c5706
  c5708
  c571
  c5711
  c5712
  c5714
  c5715
  c5716
  c5717
  c5718
  c5719
  c572
  c5720
  c5721
  c5722
  c5723
  c5724
  c5725
  c5726
  c5728
  c5729
  c5732
  c5733
  c5734
  c5735
  c5736
  c5737
  c5738
  c5739
  c574
  c5740
  c5741
  c5742
  c5743
  c5744
  c5745
  c5746
  c5747
  c5748
  c5751
  c5752
  c5753
  c5754
  c5755
  c5756
  c5757
  c5758
  c5759
  c5760
  c5761
  c5762
  c5763
  c5764
  c5765
  c5766
  c5769
  c577
  c5770
  c5771
  c5772
  c5773
  c5774
  c5775
  c5776
  c5777
  c5778
  c5779
  c578
  c5780
  c5782
  c5783
  c5784
  c5788
  c5790
  c5791
  c5792
  c5793
  c5794
  c5795
  c5796
  c5797
  c5798
  c5799
  c580
  c5800
  c5801
  c5802
  c5806
  c5807
  c5808
  c5809
  c581
  c5810
  c5811
  c5812
  c5813
  c5814
  c5815
  c5816
  c5817
  c5818
  c5819
  c5820
  c5821
  c5822
  c5823
  c5824
  c5825
  c5826
  c5827
  c583
  c5838
  c5839
  c584
  c5841
  c5842
  c5843
  c5844
  c5845
  c5846
  c5847
  c5848
  c5849
  c5851
  c5852
  c5853
  c5854
  c5855
  c5856
  c5858
  c5859
  c586
  c5860
  c5863
  c5864
  c5865
  c5866
  c5867
  c5868
  c5869
  c587
  c5870
  c5871
  c5872
  c5873
  c5874
  c5875
  c5876
  c5877
  c5879
  c5880
  c5882
  c5884
  c5885
  c5886
  c5887
  c5888
  c5889
  c5890
  c5891
  c5892
  c5893
  c5894
  c5895
  c5896
  c5897
  c5898
  c5899
  c59
  c5901
  c5904
  c5905
  c5906
  c5907
  c5908
  c5909
  c5910
  c5911
  c5912
  c5913
  c5914
  c5915
  c5916
  c5917
  c5919
  c5920
  c5921
  c5924
  c5925
  c5926
  c5927
  c5928
  c5929
  c5930
  c5931
  c5932
  c5933
  c5934
  c5935
  c5936
  c5937
  c5939
  c5941
  c5942
  c5943
  c5945
  c5946
  c5947
  c5948
  c5949
  c5950
  c5951
  c5952
  c5953
  c5954
  c5955
  c5956
  c5958
  c5959
  c596
  c5960
  c5963
  c5964
  c5965
  c5966
  c5967
  c5968
  c5969
  c597
  c5970
  c5971
  c5972
  c5973
  c5974
  c5975
  c5976
  c5977
  c5978
  c5979
  c5982
  c5983
  c5984
  c5985
  c5986
  c5987
  c5988
  c5989
  c599
  c5990
  c5991
  c5992
  c5993
  c5994
  c5995
  c5996
  c5997
  c60
  c600
  c6000
  c6001
  c6002
  c6003
  c6004
  c6005
  c6006
  c6007
  c6008
  c6009
  c6010
  c6012
  c6013
  c6014
  c6015
  c6019
  c602
  c6021
  c6022
  c6023
  c6024
  c6025
  c6026
  c6027
  c6028
  c6029
  c603
  c6030
  c6031
  c6032
  c6033
  c6037
  c6038
  c6039
  c6040
  c6041
  c6042
  c6043
  c6044
  c6045
  c6046
  c6047
  c6048
  c6049
  c605
  c6050
  c6051
  c6052
  c6053
  c6054
  c6055
  c6056
  c6057
  c6058
  c606
  c6069
  c6070
  c6072
  c6073
  c6074
  c6075
  c6076
  c6077
  c6078
  c6079
  c608
  c6081
  c6082
  c6083
  c6084
  c6085
  c6086
  c6087
  c6089
  c609
  c6090
  c6091
  c6092
  c6093
  c6094
  c6095
  c6096
  c6097
  c6098
  c6099
  c61
  c6100
  c6102
  c6103
  c6104
  c6106
  c6108
  c6109
  c611
  c6110
  c6111
  c6112
  c6113
  c6114
  c6115
  c6116
  c6117
  c6118
  c6119
  c6120
  c6121
  c6122
  c6123
  c6125
  c6128
  c6129
  c6130
  c6131
  c6132
  c6133
  c6134
  c6135
  c6136
  c6137
  c6138
  c6139
  c614
  c6140
  c6142
  c6143
  c6144
  c6145
  c6148
  c6149
  c615
  c6150
  c6151
  c6152
  c6153
  c6154
  c6155
  c6156
  c6157
  c6158
  c6159
  c6160
  c6161
  c6163
  c6166
  c6167
  c6169
  c617
  c6170
  c6171
  c6172
  c6173
  c6174
  c6175
  c6176
  c6177
  c6178
  c6179
  c618
  c6181
  c6182
  c6183
  c6184
  c6187
  c6188
  c6189
  c6190
  c6191
  c6192
  c6193
  c6194
  c6195
  c6196
  c6197
  c6198
  c6199
  c620
  c6200
  c6201
  c6202
  c6203
  c6206
  c6207
  c6208
  c6209
  c621
  c6210
  c6211
  c6212
  c6213
  c6214
  c6215
  c6216
  c6217
  c6218
  c6219
  c6220
  c6221
  c6224
  c6225
  c6226
  c6227
  c6228
  c6229
  c6230
  c6231
  c6232
  c6233
  c6235
  c6236
  c6237
  c6238
  c6239
  c6243
  c6245
  c6246
  c6247
  c6248
  c6249
  c6250
  c6251
  c6252
  c6253
  c6254
  c6255
  c6256
  c6257
  c6261
  c6262
  c6263
  c6264
  c6265
  c6266
  c6267
  c6268
  c6269
  c6270
  c6271
  c6272
  c6273
  c6274
  c6275
  c6276
  c6277
  c6278
  c6279
  c6280
  c6281
  c6282
  c6293
  c6294
  c6296
  c6297
  c6298
  c6299
  c63
  c630
  c6300
  c6301
  c6302
  c6304
  c6305
  c6306
  c6307
  c6308
  c6309
  c631
  c6310
  c6311
  c6313
  c6314
  c6315
  c6316
  c6317
  c6318
  c6319
  c6320
  c6321
  c6322
  c6323
  c6325
  c6326
  c6327
  c6328
  c633
  c6330
  c6331
  c6332
  c6333
  c6334
  c6335
  c6336
  c6337
  c6338
  c6339
  c634
  c6340
  c6341
  c6342
  c6343
  c6344
  c6345
  c6346
  c6347
  c6349
  c6352
  c6353
  c6354
  c6355
  c6356
  c6357
  c6358
  c6359
  c636
  c6360
  c6361
  c6362
  c6363
  c6365
  c6366
  c6367
  c6368
  c6369
  c637
  c6372
  c6373
  c6374
  c6375
  c6376
  c6377
  c6378
  c6379
  c6380
  c6381
  c6382
  c6383
  c6384
  c6385
  c6387
  c639
  c6390
  c6391
  c6393
  c6394
  c6395
  c6396
  c6397
  c6398
  c6399
  c640
  c6400
  c6401
  c6402
  c6404
  c6405
  c6406
  c6407
  c6408
  c6411
  c6412
  c6413
  c6414
  c6415
  c6416
  c6417
  c6418
  c6419
  c642
  c6420
  c6421
  c6422
  c6423
  c6424
  c6425
  c6426
  c6427
  c643
  c6430
  c6431
  c6432
  c6433
  c6434
  c6435
  c6436
  c6437
  c6438
  c6439
  c6440
  c6441
  c6442
  c6443
  c6444
  c6445
  c6448
  c6449
  c645
  c6450
  c6451
  c6452
  c6453
  c6454
  c6455
  c6456
  c6458
  c6459
  c646
  c6460
  c6461
  c6462
  c6463
  c6467
  c6469
  c6470
  c6471
  c6472
  c6473
  c6474
  c6475
  c6476
  c6477
  c6478
  c6479
  c648
  c6480
  c6481
  c6485
  c6486
  c6487
  c6488
  c6489
  c6490
  c6491
  c6492
  c6493
  c6494
  c6495
  c6496
  c6497
  c6498
  c6499
  c6500
  c6501
  c6502
  c6503
  c6504
  c6505
  c6506
  c651
  c6517
  c6518
  c652
  c6520
  c6521
  c6522
  c6523
  c6524
  c6525
  c6527
  c6528
  c6529
  c6530
  c6531
  c6532
  c6533
  c6534
  c6535
  c6537
  c6538
  c6539
  c654
  c6540
  c6541
  c6542
  c6543
  c6544
  c6545
  c6546
  c6548
  c6549
  c655
  c6550
  c6551
  c6552
  c6554
  c6556
  c6557
  c6558
  c6559
  c6560
  c6561
  c6562
  c6563
  c6564
  c6565
  c6566
  c6567
  c6568
  c6569
  c6570
  c6571
  c6573
  c6576
  c6577
  c6578
  c6579
  c6580
  c6581
  c6582
  c6583
  c6584
  c6585
  c6586
  c6588
  c6589
  c6590
  c6591
  c6592
  c6593
  c6596
  c6597
  c6598
  c6599
  c66
  c6600
  c6601
  c6602
  c6603
  c6604
  c6605
  c6606
  c6607
  c6608
  c6609
  c6611
  c6614
  c6615
  c6617
  c6618
  c6619
  c6620
  c6621
  c6622
  c6623
  c6624
  c6625
  c6627
  c6628
  c6629
  c6630
  c6631
  c6632
  c6635
  c6636
  c6637
  c6638
  c6639
  c664
  c6640
  c6641
  c6642
  c6643
  c6644
  c6645
  c6646
  c6647
  c6648
  c6649
  c665
  c6650
  c6651
  c6654
  c6655
  c6656
  c6657
  c6658
  c6660
  c6661
  c6662
  c6663
  c6664
  c6665
  c6666
  c6667
  c6668
  c6669
  c667
  c6672
  c6673
  c6674
  c6675
  c6676
  c6677
  c6678
  c6679
  c668
  c6681
  c6682
  c6683
  c6684
  c6685
  c6686
  c6687
  c6691
  c6693
  c6694
  c6695
  c6696
  c6697
  c6698
  c6699
  c67
  c670
  c6700
  c6701
  c6702
  c6703
  c6704
  c6705
  c6709
  c671
  c6710
  c6711
  c6712
  c6713
  c6714
  c6715
  c6716
  c6717
  c6718
  c6719
  c6720
  c6721
  c6722
  c6723
  c6724
  c6725
  c6726
  c6727
  c6728
  c6729
  c673
  c6730
  c674
  c6741
  c6742
  c6744
  c6745
  c6746
  c6747
  c6748
  c6750
  c6751
  c6752
  c6753
  c6754
  c6755
  c6756
  c6757
  c6758
  c6759
  c676
  c6761
  c6762
  c6763
  c6764
  c6765
  c6766
  c6767
  c6768
  c6769
  c677
  c6771
  c6772
  c6773
  c6774
  c6775
  c6776
  c6778
  c6779
  c6780
  c6781
  c6782
  c6783
  c6784
  c6785
  c6786
  c6787
  c6788
  c6789
  c679
  c6790
  c6791
  c6792
  c6793
  c6794
  c6795
  c6797
  c680
  c6800
  c6801
  c6802
  c6803
  c6804
  c6805
  c6806
  c6807
  c6808
  c6809
  c6811
  c6812
  c6813
  c6814
  c6815
  c6816
  c6817
  c682
  c6820
  c6821
  c6822
  c6823
  c6824
  c6825
  c6826
  c6827
  c6828
  c6829
  c683
  c6830
  c6831
  c6832
  c6833
  c6835
  c6838
  c6839
  c6841
  c6842
  c6843
  c6844
  c6845
  c6846
  c6847
  c6848
  c685
  c6850
  c6851
  c6852
  c6853
  c6854
  c6855
  c6856
  c6859
  c6860
  c6861
  c6862
  c6863
  c6864
  c6865
  c6866
  c6867
  c6868
  c6869
  c6870
  c6871
  c6872
  c6873
  c6874
  c6875
  c6878
  c6879
  c688
  c6880
  c6881
  c6882
  c6883
  c6884
  c6885
  c6886
  c6887
  c6888
  c6889
  c689
  c6890
  c6891
  c6892
  c6893
  c6896
  c6897
  c6898
  c6899
  c69
  c6900
  c6901
  c6902
  c6904
  c6905
  c6906
  c6907
  c6908
  c6909
  c6910
  c6911
  c6915
  c6916
  c6917
  c6918
  c6919
  c6920
  c6921
  c6922
  c6923
  c6924
  c6925
  c6926
  c6927
  c6928
  c6929
  c6933
  c6934
  c6935
  c6936
  c6937
  c6938
  c6939
  c6940
  c6941
  c6942
  c6943
  c6944
  c6945
  c6946
  c6947
  c6948
  c6949
  c6950
  c6951
  c6952
  c6953
  c6954
  c6965
  c6966
  c6968
  c6969
  c6970
  c6971
  c6973
  c6974
  c6975
  c6976
  c6977
  c6978
  c6979
  c698
  c6980
  c6981
  c6982
  c6983
  c6985
  c6986
  c6987
  c6988
  c6989
  c699
  c6990
  c6991
  c6992
  c6994
  c6995
  c6996
  c6997
  c6998
  c6999
  c700
  c7000
  c7002
  c7004
  c7005
  c7006
  c7007
  c7008
  c7009
  c7010
  c7011
  c7012
  c7013
  c7014
  c7015
  c7016
  c7017
  c7018
  c7019
  c702
  c7021
  c7024
  c7025
  c7026
  c7027
  c7028
  c7029
  c703
  c7030
  c7031
  c7032
  c7034
  c7035
  c7036
  c7037
  c7038
  c7039
  c7040
  c7041
  c7044
  c7045
  c7046
  c7047
  c7048
  c7049
  c705
  c7050
  c7051
  c7052
  c7053
  c7054
  c7055
  c7056
  c7057
  c7059
  c706
  c7062
  c7063
  c7065
  c7066
  c7067
  c7068
  c7069
  c7070
  c7071
  c7073
  c7074
  c7075
  c7076
  c7077
  c7078
  c7079
  c708
  c7080
  c7083
  c7084
  c7085
  c7086
  c7087
  c7088
  c7089
  c709
  c7090
  c7091
  c7092
  c7093
  c7094
  c7095
  c7096
  c7097
  c7098
  c7099
  c71
  c7102
  c7103
  c7104
  c7105
  c7106
  c7107
  c7108
  c7109
  c7110
  c7111
  c7112
  c7113
  c7114
  c7115
  c7116
  c7117
  c712
  c7120
  c7121
  c7122
  c7123
  c7124
  c7125
  c7127
  c7128
  c7129
  c713
  c7130
  c7131
  c7132
  c7133
  c7134
  c7135
  c7139
  c7141
  c7142
  c7143
  c7144
  c7145
  c7146
  c7147
  c7148
  c7149
  c715
  c7150
  c7151
  c7152
  c7153
  c7157
  c7158
  c7159
  c716
  c7160
  c7161
  c7162
  c7163
  c7164
  c7165
  c7166
  c7167
  c7168
  c7169
  c7170
  c7171
  c7172
  c7173
  c7174
  c7175
  c7176
  c7177
  c7178
  c718
  c7189
  c719
  c7190
  c7192
  c7193
  c7194
  c7196
  c7197
  c7198
  c7199
  c72
  c7200
  c7201
  c7202
  c7203
  c7204
  c7205
  c7206
  c7207
  c7209
  c721
  c7210
  c7211
  c7212
  c7213
  c7214
  c7215
  c7217
  c7218
  c7219
  c722
  c7220
  c7221
  c7222
  c7223
  c7224
  c7226
  c7228
  c7229
  c7230
  c7231
  c7232
  c7233
  c7234
  c7235
  c7236
  c7237
  c7238
  c7239
  c7240
  c7241
  c7242
  c7243
  c7245
  c7247
  c7248
  c7249
  c7250
  c7251
  c7252
  c7253
  c7254
  c7257
  c7258
  c7259
  c726
  c7260
  c7261
  c7262
  c7263
  c7264
  c7265
  c7268
  c7269
  c727
  c7270
  c7271
  c7272
  c7273
  c7274
  c7275
  c7276
  c7277
  c7278
  c7279
  c7280
  c7281
  c7283
  c7286
  c7287
  c7289
  c729
  c7290
  c7291
  c7292
  c7293
  c7294
  c7296
  c7297
  c7298
  c7299
  c730
  c7300
  c7301
  c7302
  c7303
  c7304
  c7307
  c7308
  c7309
  c7310
  c7311
  c7312
  c7313
  c7314
  c7315
  c7316
  c7317
  c7318
  c7319
  c732
  c7320
  c7321
  c7322
  c7323
  c7326
  c7327
  c7328
  c7329
  c733
  c7330
  c7331
  c7332
  c7333
  c7334
  c7335
  c7336
  c7337
  c7338
  c7339
  c7340
  c7341
  c7344
  c7345
  c7346
  c7347
  c7348
  c735
  c7350
  c7351
  c7352
  c7353
  c7354
  c7355
  c7356
  c7357
  c7358
  c7359
  c736
  c7373
  c7375
  c7376
  c7377
  c7378
  c7379
  c738
  c7380
  c7381
  c7382
  c7383
  c7384
  c7385
  c7386
  c7387
  c739
  c7398
  c7399
  c74
  c7400
  c7401
  c7402
  c7403
  c7404
  c7405
  c7406
  c7407
  c7408
  c7409
  c7410
  c7411
  c7412
  c7413
  c7414
  c7415
  c7416
  c7417
  c7418
  c7419
  c7422
  c7424
  c7428
  c744
  c7445
  c7446
  c745
  c7456
  c7457
  c7462
  c7463
  c7464
  c7465
  c7466
  c7467
  c7468
  c7469
  c747
  c7471
  c7472
  c7473
  c7474
  c7475
  c7476
  c7477
  c7478
  c7479
  c748
  c7481
  c7482
  c7487
  c7488
  c7489
  c7490
  c7491
  c7492
  c7493
  c7494
  c7495
  c7496
  c7497
  c7498
  c7499
  c75
  c750
  c7500
  c7501
  c7502
  c7503
  c7504
  c7505
  c7506
  c7507
  c7508
  c7509
  c751
  c7510
  c7511
  c7512
  c7513
  c7514
  c7515
  c7516
  c7517
  c7518
  c7519
  c7520
  c7521
  c7522
  c7523
  c7526
  c7527
  c7528
  c7529
  c753
  c7530
  c7531
  c7532
  c7533
  c754
  c7552
  c7553
  c7557
  c7558
  c756
  c7561
  c7563
  c7565
  c7566
  c7568
  c757
  c7571
  c7572
  c7574
  c7577
  c7581
  c7585
  c7586
  c7587
  c7588
  c7589
  c759
  c7590
  c760
  c766
  c767
  c769
  c77
  c770
  c772
  c773
  c775
  c776
  c778
  c779
  c78
  c781
  c782
  c784
  c785
  c79
  c792
  c793
  c795
  c796
  c798
  c799
  c80
  c801
  c802
  c804
  c805
  c807
  c808
  c81
  c810
  c811
  c813
  c814
  c822
  c823
  c825
  c826
  c828
  c829
  c83
  c831
  c832
  c834
  c835
  c837
  c838
  c84
  c840
  c841
  c843
  c844
  c85
  c86
  c88
  c887
  c888
  c889
  c89
  c890
  c891
  c892
  c893
  c895
  c896
  c897
  c898
  c899
  c9
  c90
  c900
  c901
  c902
  c91
  c910
  c912
  c913
  c916
  c917
  c92
  c920
  c921
  c924
  c925
  c928
  c929
  c93
  c932
  c933
  c936
  c937
  c940
  c941
  c944
  c945
  c946
  c949
  c95
  c950
  c951
  c954
  c955
  c956
  c959
  c96
  c960
  c961
  c964
  c965
  c966
  c969
  c97
  c970
  c971
  c974
  c975
  c976
  c98
  c981
  c982
  c983
  c984
  c985
  c99
  c990
  c991
  c992
  c993
  c998 )
